(set-logic ALL)
(set-option :produce-models true)
(declare-sort BoundSet 0)
(declare-sort UnboundSet 0)
(set-option :finite-model-find true)
(declare-fun IsASpeaker (BoundSet) Bool)
(declare-fun IsAStudent (BoundSet) Bool)
(declare-fun IsSpeaker (BoundSet) Bool)
(declare-fun CannotReceive (BoundSet) Bool)
(assert (not (=> (exists ((b BoundSet)) (exists ((a BoundSet)) (and (IsASpeaker a) (IsAStudent b)))) (exists ((a BoundSet)) (exists ((c BoundSet)) (and (IsSpeaker a) (not (CannotReceive c))))))))
(check-sat)
(get-model)